Normalized Data/p04_19_normalized_splitx10_0.vrp
NAME:p04_19_NORMALIZED_splitx10_
BEST_KNOWN: 0
COMMENT: 0
DIMENSION: 634
CAPACITY: 1000
EDGE_WEIGHT_FORMAT: FUNCTION
EDGE_WEIGHT_TYPE: EXACT_2D
NODE_COORD_SECTION
1 0.00000 0.00000
2 -26 49
3 -26 49
4 -26 49
5 -26 49
6 -23 -44
7 -23 -44
8 -23 -44
9 -23 -44
10 -12 24
11 -12 24
12 -12 24
13 -12 24
14 -12 24
15 -12 24
16 38 -33
17 38 -33
18 38 -33
19 38 -33
20 32 32
21 32 32
22 32 32
23 32 32
24 32 32
25 32 32
26 -46 13
27 -46 13
28 -46 13
29 -46 13
30 -46 13
31 -46 13
32 -34 4
33 -34 4
34 -34 4
35 -34 4
36 34 29
37 34 29
38 34 29
39 3 19
40 3 19
41 3 19
42 3 19
43 3 19
44 30 9
45 30 9
46 30 9
47 30 9
48 -38 -11
49 -38 -11
50 -38 -11
51 -38 -11
52 -38 -11
53 16 -46
54 16 -46
55 16 -46
56 16 -46
57 16 -46
58 -32 -41
59 -32 -41
60 -32 -41
61 -32 -41
62 -32 -41
63 -32 -41
64 -32 -41
65 -31 34
66 -31 34
67 11 45
68 11 45
69 11 45
70 11 45
71 11 45
72 11 45
73 19 -42
74 19 -42
75 19 -42
76 19 -42
77 19 -42
78 -50 24
79 -50 24
80 -50 24
81 -50 24
82 -50 24
83 -50 24
84 -7 -2
85 -7 -2
86 -7 -2
87 -7 -2
88 -7 -2
89 -7 -2
90 -7 -2
91 -14 13
92 -14 13
93 -14 13
94 -14 13
95 -41 -45
96 -41 -45
97 -41 -45
98 -41 -45
99 -37 -10
100 -37 -10
101 -37 -10
102 -37 -10
103 -37 -10
104 -37 -10
105 -37 -10
106 5 40
107 5 40
108 -44 38
109 -44 38
110 -44 38
111 -44 38
112 -39 -14
113 -39 -14
114 -39 -14
115 -39 -14
116 -39 -14
117 -39 -14
118 -1 -42
119 -1 -42
120 -1 -42
121 -1 -42
122 9 -26
123 9 -26
124 -40 -16
125 -40 -16
126 -40 -16
127 -40 -16
128 -1 -12
129 -1 -12
130 -1 -12
131 -1 -12
132 -1 -12
133 34 -38
134 34 -38
135 34 -38
136 -2 -17
137 -2 -17
138 -2 -17
139 -2 -17
140 -2 -17
141 18 16
142 18 16
143 18 16
144 18 16
145 -36 19
146 -36 19
147 -27 -28
148 -27 -28
149 -27 -28
150 -27 -28
151 -27 -28
152 -41 27
153 -41 27
154 -41 27
155 -41 27
156 14 -15
157 14 -15
158 14 -15
159 14 -15
160 14 -15
161 5 -19
162 5 -19
163 5 -19
164 5 -19
165 5 -19
166 32 7
167 32 7
168 32 7
169 32 7
170 32 7
171 32 7
172 -38 29
173 -38 29
174 -38 29
175 -38 29
176 -38 29
177 38 36
178 38 36
179 38 36
180 38 36
181 20 -32
182 3 5
183 3 5
184 3 5
185 3 5
186 6 -21
187 6 -21
188 6 -21
189 8 -21
190 8 -21
191 8 -21
192 13 -1
193 13 -1
194 13 -1
195 13 -1
196 12 31
197 12 31
198 12 31
199 12 31
200 -13 48
201 -13 48
202 -13 48
203 -13 48
204 -13 48
205 -13 48
206 -9 -7
207 -9 -7
208 -9 -7
209 -9 -7
210 -25 23
211 -25 23
212 -25 23
213 -25 23
214 -25 23
215 -25 23
216 43 2
217 43 2
218 43 2
219 43 2
220 43 2
221 43 2
222 -46 -21
223 -46 -21
224 -46 -21
225 -46 -21
226 -46 -21
227 50 18
228 50 18
229 50 18
230 50 18
231 50 18
232 50 18
233 35 9
234 -34 -9
235 -34 -9
236 -34 -9
237 -34 -9
238 39 1
239 39 1
240 39 1
241 39 1
242 39 1
243 -32 -41
244 -32 -41
245 -32 -41
246 -24 -19
247 -24 4
248 -24 4
249 -24 4
250 -24 4
251 -24 4
252 49 22
253 49 22
254 49 22
255 7 14
256 7 14
257 7 14
258 7 14
259 7 14
260 7 14
261 -27 -41
262 -27 -41
263 -27 -41
264 -27 -41
265 -27 -41
266 -18 -5
267 -18 -5
268 10 18
269 10 18
270 10 18
271 10 18
272 25 27
273 25 27
274 25 27
275 20 25
276 20 25
277 20 25
278 8 49
279 8 49
280 8 49
281 8 49
282 -6 38
283 -6 38
284 -6 38
285 -6 38
286 39 -11
287 39 -11
288 -11 -27
289 -11 -27
290 -8 -17
291 -8 -17
292 -8 -17
293 -8 -17
294 -8 -17
295 -8 -17
296 -37 -15
297 -37 -15
298 13 -2
299 13 -2
300 13 -2
301 13 -2
302 13 -2
303 29 -5
304 29 -5
305 29 -5
306 29 -5
307 29 -5
308 34 -31
309 17 33
310 17 33
311 17 33
312 17 33
313 28 -47
314 28 -47
315 28 -47
316 28 -47
317 28 -47
318 24 -49
319 24 -49
320 24 -49
321 24 -49
322 24 -49
323 24 -49
324 24 -49
325 -35 19
326 -35 19
327 26 14
328 26 14
329 26 14
330 26 14
331 26 14
332 -25 9
333 -25 9
334 -25 9
335 -25 9
336 -25 9
337 -25 9
338 8 -9
339 8 -9
340 8 -9
341 8 -9
342 8 -9
343 17 -24
344 17 -24
345 17 -24
346 -49 -37
347 -49 -37
348 -49 -37
349 -49 -37
350 34 38
351 34 38
352 34 38
353 -49 -39
354 -49 -39
355 -49 -39
356 -49 -39
357 -49 -39
358 11 31
359 11 31
360 11 31
361 11 31
362 11 31
363 47 -14
364 47 -14
365 47 -14
366 47 -14
367 20 -3
368 20 -3
369 20 -3
370 -8 38
371 -8 38
372 -8 38
373 -8 38
374 -11 -30
375 -11 -30
376 -11 -30
377 -11 -30
378 -11 -30
379 19 41
380 19 41
381 38 46
382 38 46
383 -4 20
384 -4 20
385 -4 20
386 -4 20
387 -4 20
388 -4 20
389 -4 20
390 -1 4
391 -1 4
392 -1 4
393 -1 4
394 -1 4
395 18 8
396 18 8
397 18 8
398 -37 19
399 -37 19
400 -37 19
401 -37 19
402 50 -17
403 50 -17
404 50 -17
405 -41 -30
406 -41 -30
407 -41 -30
408 -22 17
409 -22 17
410 -22 17
411 -22 17
412 -22 17
413 -22 17
414 -43 -47
415 -43 -47
416 -43 -47
417 -43 -47
418 -43 -47
419 -43 -47
420 -28 -37
421 -28 -37
422 -28 -37
423 -28 -37
424 -34 -14
425 -34 -14
426 -43 -40
427 -43 -40
428 -43 -40
429 -43 -40
430 -43 -40
431 -43 -40
432 -43 -40
433 22 -10
434 22 -10
435 -43 -44
436 -43 -44
437 -43 -44
438 -49 13
439 -49 13
440 -49 13
441 -49 13
442 19 -31
443 19 -31
444 19 -31
445 19 -31
446 19 -31
447 6 -45
448 6 -45
449 6 -45
450 6 -45
451 6 -45
452 -42 22
453 -42 22
454 -42 22
455 -42 22
456 -42 22
457 -46 38
458 -46 38
459 -46 38
460 -46 38
461 21 7
462 21 7
463 21 7
464 21 7
465 21 7
466 -31 -18
467 -31 -18
468 -31 -18
469 -31 -18
470 -31 -18
471 40 23
472 40 23
473 40 23
474 40 23
475 -38 9
476 -38 9
477 -38 9
478 -38 9
479 -38 9
480 -38 9
481 -38 9
482 32 38
483 32 38
484 -45 50
485 -45 50
486 -45 50
487 -45 50
488 -45 50
489 -42 20
490 -42 20
491 -42 20
492 -42 20
493 -42 20
494 -20 -43
495 -20 -43
496 -20 -43
497 -20 -43
498 43 -1
499 43 -1
500 43 -1
501 43 -1
502 43 -1
503 -6 -7
504 -6 -7
505 -6 -7
506 44 30
507 44 30
508 44 30
509 44 30
510 44 30
511 44 30
512 -2 12
513 -2 12
514 -2 12
515 47 14
516 47 14
517 47 14
518 47 14
519 49 15
520 49 15
521 49 15
522 -15 -40
523 -15 -40
524 -15 -40
525 19 30
526 19 30
527 19 30
528 -36 -14
529 -36 -14
530 41 -4
531 41 -4
532 41 -4
533 3 -35
534 3 -35
535 3 -35
536 3 -35
537 3 -35
538 -37 10
539 -37 10
540 -37 10
541 -6 -22
542 -6 -22
543 -6 -22
544 -6 -22
545 -6 -22
546 28 9
547 28 9
548 42 -25
549 42 -25
550 42 -25
551 42 -25
552 36 -19
553 36 -19
554 17 41
555 17 41
556 17 41
557 17 41
558 50 -22
559 50 -22
560 50 -22
561 19 -13
562 19 -13
563 19 -13
564 19 -13
565 19 -13
566 30 -42
567 30 -42
568 30 -42
569 -27 21
570 -27 21
571 -27 21
572 -27 21
573 -27 21
574 -7 -23
575 -7 -23
576 -7 -23
577 -7 -23
578 -7 -23
579 -7 -23
580 -15 0
581 -15 0
582 -15 0
583 -15 0
584 -15 0
585 -15 0
586 -26 36
587 -26 36
588 -26 36
589 -26 36
590 -26 36
591 29 28
592 29 28
593 29 28
594 41 20
595 41 20
596 41 20
597 41 20
598 41 20
599 41 20
600 -27 8
601 -27 8
602 -23 -6
603 -23 -6
604 -23 -6
605 -23 -6
606 -23 -6
607 -23 -6
608 -23 -6
609 34 40
610 34 40
611 34 40
612 34 40
613 34 40
614 34 40
615 43 19
616 43 19
617 43 19
618 43 19
619 43 19
620 43 19
621 47 34
622 47 34
623 47 34
624 -11 -4
625 -11 -4
626 -11 -4
627 -11 -4
628 -11 -4
629 -41 14
630 -41 14
631 -41 14
632 -41 14
633 -41 14
634 -41 14
DEMAND_SECTION
1 0
2 100
3 10
4 10
5 10
6 100
7 10
8 10
9 10
10 200
11 100
12 50
13 10
14 10
15 10
16 100
17 50
18 10
19 10
20 100
21 50
22 10
23 10
24 10
25 10
26 200
27 50
28 10
29 10
30 10
31 10
32 200
33 100
34 50
35 10
36 200
37 100
38 10
39 200
40 200
41 50
42 10
43 10
44 200
45 50
46 10
47 10
48 200
49 10
50 10
51 10
52 10
53 200
54 200
55 10
56 10
57 10
58 200
59 200
60 50
61 10
62 10
63 10
64 10
65 200
66 10
67 200
68 100
69 10
70 10
71 10
72 10
73 200
74 200
75 10
76 10
77 10
78 100
79 50
80 10
81 10
82 10
83 10
84 200
85 200
86 50
87 10
88 10
89 10
90 10
91 100
92 50
93 10
94 10
95 100
96 10
97 10
98 10
99 200
100 200
101 50
102 10
103 10
104 10
105 10
106 200
107 10
108 200
109 50
110 10
111 10
112 200
113 100
114 50
115 10
116 10
117 10
118 200
119 50
120 10
121 10
122 100
123 50
124 100
125 10
126 10
127 10
128 200
129 50
130 10
131 10
132 10
133 200
134 200
135 50
136 200
137 200
138 10
139 10
140 10
141 200
142 100
143 10
144 10
145 200
146 100
147 200
148 100
149 10
150 10
151 10
152 200
153 100
154 50
155 10
156 200
157 50
158 10
159 10
160 10
161 200
162 10
163 10
164 10
165 10
166 200
167 200
168 10
169 10
170 10
171 10
172 100
173 10
174 10
175 10
176 10
177 200
178 10
179 10
180 10
181 200
182 200
183 50
184 10
185 10
186 200
187 50
188 10
189 100
190 50
191 10
192 200
193 50
194 10
195 10
196 100
197 50
198 10
199 10
200 200
201 100
202 50
203 10
204 10
205 10
206 200
207 100
208 10
209 10
210 200
211 200
212 10
213 10
214 10
215 10
216 100
217 50
218 10
219 10
220 10
221 10
222 200
223 200
224 50
225 10
226 10
227 200
228 200
229 50
230 10
231 10
232 10
233 200
234 100
235 10
236 10
237 10
238 200
239 200
240 10
241 10
242 10
243 200
244 200
245 10
246 200
247 200
248 100
249 10
250 10
251 10
252 200
253 10
254 10
255 200
256 100
257 50
258 10
259 10
260 10
261 100
262 50
263 10
264 10
265 10
266 200
267 200
268 200
269 200
270 10
271 10
272 100
273 50
274 10
275 200
276 50
277 10
278 100
279 10
280 10
281 10
282 200
283 50
284 10
285 10
286 200
287 50
288 200
289 10
290 200
291 100
292 50
293 10
294 10
295 10
296 200
297 200
298 200
299 200
300 10
301 10
302 10
303 200
304 10
305 10
306 10
307 10
308 200
309 200
310 50
311 10
312 10
313 200
314 200
315 50
316 10
317 10
318 200
319 200
320 50
321 10
322 10
323 10
324 10
325 200
326 100
327 200
328 200
329 50
330 10
331 10
332 200
333 100
334 10
335 10
336 10
337 10
338 100
339 50
340 10
341 10
342 10
343 100
344 10
345 10
346 200
347 200
348 50
349 10
350 200
351 50
352 10
353 200
354 50
355 10
356 10
357 10
358 200
359 100
360 50
361 10
362 10
363 200
364 100
365 50
366 10
367 100
368 50
369 10
370 100
371 10
372 10
373 10
374 200
375 100
376 10
377 10
378 10
379 200
380 10
381 100
382 50
383 200
384 200
385 50
386 10
387 10
388 10
389 10
390 100
391 10
392 10
393 10
394 10
395 200
396 100
397 10
398 200
399 200
400 50
401 10
402 200
403 100
404 10
405 200
406 10
407 10
408 200
409 100
410 10
411 10
412 10
413 10
414 200
415 100
416 50
417 10
418 10
419 10
420 100
421 50
422 10
423 10
424 200
425 50
426 200
427 100
428 50
429 10
430 10
431 10
432 10
433 100
434 50
435 200
436 10
437 10
438 200
439 10
440 10
441 10
442 200
443 10
444 10
445 10
446 10
447 200
448 200
449 50
450 10
451 10
452 100
453 50
454 10
455 10
456 10
457 200
458 100
459 10
460 10
461 200
462 10
463 10
464 10
465 10
466 200
467 200
468 50
469 10
470 10
471 200
472 100
473 10
474 10
475 200
476 200
477 50
478 10
479 10
480 10
481 10
482 200
483 50
484 100
485 10
486 10
487 10
488 10
489 200
490 200
491 10
492 10
493 10
494 100
495 10
496 10
497 10
498 200
499 50
500 10
501 10
502 10
503 200
504 200
505 10
506 100
507 50
508 10
509 10
510 10
511 10
512 100
513 50
514 10
515 200
516 50
517 10
518 10
519 200
520 10
521 10
522 100
523 50
524 10
525 100
526 10
527 10
528 200
529 100
530 200
531 10
532 10
533 200
534 10
535 10
536 10
537 10
538 200
539 200
540 10
541 200
542 10
543 10
544 10
545 10
546 200
547 200
548 200
549 50
550 10
551 10
552 200
553 10
554 200
555 100
556 50
557 10
558 200
559 10
560 10
561 200
562 50
563 10
564 10
565 10
566 200
567 200
568 100
569 100
570 10
571 10
572 10
573 10
574 100
575 50
576 10
577 10
578 10
579 10
580 200
581 200
582 10
583 10
584 10
585 10
586 100
587 50
588 10
589 10
590 10
591 200
592 100
593 10
594 200
595 100
596 50
597 10
598 10
599 10
600 100
601 50
602 200
603 100
604 50
605 10
606 10
607 10
608 10
609 100
610 50
611 10
612 10
613 10
614 10
615 200
616 50
617 10
618 10
619 10
620 10
621 200
622 100
623 50
624 200
625 50
626 10
627 10
628 10
629 200
630 100
631 50
632 10
633 10
634 10
DEPOT_SECTION
1
-1
EOF