Normalized Data/p04_19_normalized_splitx10_0.sol
633 -4 3 1 2 487 483 484 486 485 458 456 459 457 109 107 108 110 171 174 172 175 173 -11 10 9 383 384 382 511 389 -27 30 28 29 26 25 437 439 438 440 82 77 78 80 81 79 490 492 491 397 399 -34 32 33 31 476 478 475 477 479 480 474 599 600 -50 51 49 47 48 102 99 100 104 101 98 103 233 236 234 235 606 607 605 604 602 -61 63 59 57 243 244 60 62 58 242 422 421 420 -73 72 56 54 53 52 55 122 121 -74 76 75 321 317 319 318 320 323 322 312 316 315 314 313 -87 84 88 624 625 623 581 582 584 583 579 580 -89 85 86 83 207 208 206 205 504 502 503 -91 92 90 212 214 210 209 568 407 412 408 411 -93 213 211 64 65 586 589 585 587 588 200 204 201 202 203 199 370 372 371 369 14 13 12 392 390 391 393 -96 95 97 94 417 414 413 415 416 418 436 435 434 431 427 425 -106 105 70 66 69 71 67 68 277 280 279 278 283 281 284 282 386 388 385 387 -115 113 116 111 114 295 296 527 528 -117 119 118 120 448 450 449 446 447 532 533 535 536 534 -129 130 127 131 128 164 161 162 163 160 185 186 187 189 190 188 -137 139 135 138 136 289 290 292 294 291 293 -140 143 275 276 274 197 198 196 195 358 357 359 -142 141 36 37 35 20 22 23 19 590 592 591 272 -147 428 430 429 426 356 353 352 355 354 346 348 347 345 405 406 -149 148 150 146 419 264 260 263 261 262 8 5 7 6 494 496 495 493 523 521 522 -165 169 166 168 167 170 232 45 46 44 43 462 464 463 461 -179 178 176 177 621 620 622 509 505 508 506 507 510 251 253 252 -181 183 257 258 259 255 256 254 394 460 -182 184 267 269 268 40 39 42 41 38 513 512 -191 193 192 194 298 301 300 299 297 -226 228 231 229 230 227 518 519 520 514 517 516 515 -240 239 241 238 237 215 220 217 216 218 219 497 501 499 498 500 366 -245 467 465 469 466 468 423 424 -250 248 249 247 246 603 601 266 265 -270 524 526 525 308 309 311 310 379 378 553 556 554 555 361 360 -271 273 24 21 351 350 349 380 381 609 608 612 613 611 610 482 481 -286 362 365 363 364 402 403 401 557 559 558 -288 287 376 373 374 375 377 573 574 578 576 577 575 541 542 544 540 543 -307 15 17 16 18 547 550 549 548 552 551 433 432 -324 325 145 144 398 400 332 335 334 333 -331 336 629 630 631 633 628 632 537 539 538 -339 132 133 134 565 566 567 343 -340 341 337 338 158 159 155 156 157 344 342 180 443 445 441 442 444 -368 367 303 305 304 306 302 530 531 529 285 563 561 564 562 560 -396 395 327 326 329 328 330 545 546 -404 223 225 222 224 221 123 124 125 126 112 626 627 -409 410 570 572 571 569 154 153 152 151 454 451 453 455 452 489 488 -472 473 471 470 597 596 598 595 594 593 619 615 616 614 617 618 0 





OBJ=
3957.763
BEST_KNOWN=
0.000